Name: EasyAcademy9
Courses: 154
Rooms: 36
Days: 5
Periods_per_day: 5
Curricula: 63
Min_Max_Daily_Lectures: 2 4
UnavailabilityConstraints: 833
RoomConstraints: 954

COURSES:
c3433 t460 2 2 100 0
c3434 t462 2 2 50 0
c3435 t463 2 2 40 0
c3436 t464 2 2 50 0
c3437 t355 1 1 50 0
c3438 t465 2 2 50 0
c3439 t354 1 1 50 0
c3440 t466 4 3 100 0
c3441 t467 2 2 50 0
c3442 t353 1 1 50 0
c3443 t466 2 2 10 0
c3444 t407 2 2 100 0
cU1 t468 4 3 80 0
c3447 t352 2 2 100 0
c3448 t469 2 2 40 0
c3449 t461 2 2 90 0
c3450 t470 2 2 100 0
c3451 t471 2 2 100 0
c3452 t472 2 2 100 0
c3453 t471 2 2 90 0
c3454 t472 2 2 40 0
c3455 t363 2 2 40 0
c3456 t435 2 2 40 0
c3457 t473 2 2 70 0
c3458 t394 2 2 60 0
c3459 t471 2 2 100 0
c3460 t441 2 2 140 0
c3461 t474 2 2 36 0
c3462 t366 2 2 90 0
c3463 t475 2 2 60 0
c3464 t375 2 2 40 0
c3465 t423 2 2 90 0
c3466 t434 2 2 100 0
cU2 t418 4 3 155 0
c3469 t366 2 2 40 0
c3470 t451 2 2 70 0
c3471 t450 2 2 90 0
c3472 t370 2 2 90 0
c3473 t476 2 2 300 0
c3474 t386 2 2 90 0
c3475 no_teacher1 2 2 90 0
c3476 t449 2 2 120 0
c3477 t462 3 3 20 0
c3478 t356 2 2 90 0
c3479 t477 2 2 40 0
cU3 t432 7 2 45 1
cU4 t479 7 2 45 1
c3484 t481 3 2 100 0
c3485 t482 2 2 40 0
c3486 t482 2 2 40 0
c3487 t463 2 2 200 0
c3488 t421 1 1 40 0
c3489 t463 1 1 40 0
c3490 t483 4 3 120 0
cU5 t484 4 2 100 1
c3493 t400 4 4 100 0
c3494 t397 4 2 90 1
c3495 t419 2 2 155 0
c3496 t463 2 2 45 0
c3497 t403 1 1 50 0
cU6 t485 4 3 30 0
c3500 t403 2 2 45 0
c3501 t387 2 2 90 0
c3502 t445 2 2 90 0
c3503 t352 2 2 105 0
c3504 t411 2 2 45 0
c3505 t486 2 2 200 0
c3506 t429 2 2 90 0
c3507 t487 2 2 120 0
c3508 t488 2 2 40 0
c3509 t489 2 2 90 0
c3510 t489 2 2 90 0
c3511 t414 2 2 40 0
c3512 t490 2 2 90 0
c3513 t490 2 2 100 0
c3514 t490 2 2 100 0
c3515 t419 2 2 210 0
c3516 t417 2 2 40 0
c3517 t491 2 2 20 0
c3518 t491 2 2 20 0
c3519 t492 2 2 40 0
cU7 t493 9 2 30 1
c3522 t421 2 2 96 0
cU8 t496 9 2 35 1
c3525 t462 2 2 30 0
cU9 t497 6 2 45 1
cU10 t498 6 2 30 1
cU11 t500 9 2 60 1
cU12 t501 9 2 70 1
cU13 t503 6 2 30 1
cU14 t494 9 2 90 1
cU15 t505 8 2 90 1
cU16 t442 6 2 30 1
cU17 t442 6 2 45 1
cU18 t508 6 3 45 1
cU19 t510 6 2 30 1
cU20 t511 6 2 45 1
cU21 t512 6 3 30 1
c3552 t446 2 2 75 0
c3553 t378 4 3 90 0
c3554 t424 2 2 200 0
c3555 t424 2 2 60 0
c3556 t425 2 2 90 0
c3557 t514 2 2 90 0
c3558 t492 2 2 90 0
c3559 t469 2 2 90 0
cU22 t522 4 3 90 0
c3561 t516 2 2 30 0
c3562 t404 2 2 60 0
c3563 t517 3 3 90 0
c3564 t435 2 2 40 0
c3565 t518 2 2 30 0
c3566 t519 2 2 120 0
c3567 t377 2 2 145 0
c3568 t520 2 2 45 0
c3569 t521 2 2 40 0
c3570 t392 2 2 18 0
c3571 t389 3 2 90 0
c3572 t515 3 3 40 0
c3574 t358 2 2 100 0
c3575 t438 2 2 40 0
c3576 t444 2 2 45 0
c3577 t523 2 2 90 0
c3578 t524 2 2 60 0
c3579 t379 5 4 100 0
c3580 t514 2 2 205 0
c3581 t459 2 2 105 0
c3582 t525 2 2 150 0
c3583 t423 2 2 90 0
c3584 t523 2 2 40 0
c3585 t358 2 2 90 0
c3586 t352 2 2 40 0
c3587 t490 2 2 90 0
c3588 t526 2 2 60 0
c3589 t474 2 2 80 0
c3590 t527 2 2 40 0
c3591 t528 2 1 100 1
c3592 t519 2 2 135 0
c3593 t518 2 2 30 0
c3594 t440 4 2 100 1
c3595 t525 2 2 90 0
c3596 t376 2 2 135 0
c3597 no_teacher2 2 2 90 0
c3598 t452 2 2 40 0
c3599 t361 2 2 90 0
c3600 t525 1 1 100 0
c3601 t529 4 3 60 0
c3602 t455 2 2 40 0
c3603 t530 2 2 170 0
c3604 t441 2 2 150 0
c3605 t459 2 2 90 0
c3606 t531 2 2 40 0
c3607 t531 2 2 100 0
cU23 t532 5 4 50 0

ROOMS:
r172 30 0
r173 60 0
r174 60 0
r175 60 0
r176 90 0
r177 110 0
r137 42 1
r138 65 1
r139 45 1
r140 42 1
r141 42 1
r142 48 1
r143 60 1
r144 78 1
r145 60 1
r146 312 1
r147 216 1
r178 232 1
r148 216 1
r149 90 1
r150 90 1
r151 90 1
r152 90 1
r180 180 1
r153 216 1
r154 50 1
r155 50 1
r156 216 1
r157 216 1
r158 90 1
r159 90 1
r162 20 1
r179 336 1
r160 0 1
r161 0 1
r163 5 1

CURRICULA:
cu211A 4 cU13 cU9 cU16 cU17
cu211B 4 cU13 cU9 cU16 c3568
cu212A 4 cU19 cU20 cU10 cU21
cu212B 4 cU19 cU20 cU10 cU18
cu213 8 cU2 c3469 c3470 c3471 c3472 c3515 c3567 c3598
cu214 8 cU2 c3470 c3471 c3472 c3479 c3556 c3557 c3605
cu215 6 c3462 c3469 c3515 c3567 c3575 c3598
cu216 7 cU2 c3462 c3479 c3556 c3557 c3575 c3605
cu217 7 cU1 cU22 c3448 c3458 c3570 c3434 c3444
cu218 7 cU22 c3448 c3525 c3570 c3589 c3434 c3444
cu219 5 cU22 c3448 c3570 c3434 c3444
cu220 6 cU22 c3448 c3458 c3525 c3434 c3444
cu221 9 cU22 c3458 c3461 c3486 c3525 c3589 c3434 c3444 c3485
cu222 6 cU1 c3448 c3458 c3570 c3434 c3444
cu223 6 c3448 c3525 c3570 c3589 c3434 c3444
cu224 4 c3448 c3570 c3434 c3444
cu225 5 c3448 c3458 c3525 c3434 c3444
cu227 6 c3447 c3571 c3587 c3591 c3592 c3607
cu228 6 c3447 c3571 c3585 c3586 c3591 c3592
cu229 2 c3461 c3506
cu230 7 cU1 c3519 c3522 c3558 c3595 c3596 c3603
cu231 8 c3433 c3435 c3457 c3487 c3515 c3522 c3562 c3564
cu232 5 c3465 c3522 c3582 c3583 c3584
cu233 5 cU1 c3505 c3522 c3602 c3603
cu234 9 cU1 c3513 c3514 c3519 c3522 c3558 c3595 c3596 c3603
cu235 10 c3433 c3435 c3457 c3487 c3513 c3514 c3515 c3522 c3562 c3564
cu236 7 c3465 c3513 c3514 c3522 c3582 c3583 c3584
cu237 7 cU1 c3505 c3513 c3514 c3522 c3602 c3603
cu238 9 cU2 c3504 c3509 c3510 c3518 c3561 c3565 c3576 c3593
cu239 4 cU2 c3508 c3510 c3511
cu240 7 c3504 c3509 c3518 c3561 c3565 c3576 c3593
cu241 8 c3504 c3509 c3517 c3518 c3561 c3565 c3576 c3593
cu242 6 c3454 c3456 c3459 c3487 c3516 c3517
cu243 5 c3488 c3489 c3512 c3518 c3590
cu244 5 c3441 c3442 c3450 c3490 c3600
cu245 5 c3449 c3495 c3503 c3580 c3581
cu246 5 c3495 c3503 c3580 c3581 c3599
cu247 5 c3478 c3495 c3503 c3580 c3581
cu248 2 c3466 c3597
cu249 3 cU2 c3495 c3497
cu250 6 c3495 c3497 c3517 c3552 c3569 c3580
cu251 4 cU5 c3438 c3439 c3559
cu252 5 c3460 c3501 c3502 c3563 c3604
cu253 3 c3477 c3572 c3574
cu254 4 cU5 c3438 c3439 c3451
cu255 5 c3455 c3473 c3476 c3566 c3606
cu256 5 c3473 c3476 c3554 c3566 c3606
cu257 5 c3460 c3473 c3476 c3566 c3604
cu258 3 c3505 c3507 c3552
cu259 3 c3464 c3507 c3574
cu260 4 c3436 c3437 c3452 c3493
cu261 5 c3474 c3496 c3500 c3554 c3577
cu262 1 c3553
cu263 4 c3440 c3443 c3453 c3494
cu264 4 cU6 c3475 c3555 c3578
cu265 3 c3463 c3588 c3601
cu266 4 cU4 cU23 cU3 c3484
cu267A 3 cU8 cU7 c3579
cu267B 3 cU8 cU7 c3594
cu268A 2 cU12 cU14
cu268C 2 cU12 cU15
cu268D 2 cU14 cU11
cu268F 2 cU11 cU15

UNAVAILABILITY_CONSTRAINTS:
c3433 0 0
c3433 0 1
c3433 1 0
c3433 1 1
c3433 2 0
c3433 2 1
c3433 3 0
c3433 4 0
c3435 1 4
c3435 4 0
c3435 4 1
c3435 4 2
c3435 4 3
c3435 4 4
c3437 0 3
c3437 0 4
c3437 1 3
c3437 1 4
c3437 2 3
c3437 2 4
c3437 3 3
c3437 3 4
c3437 4 3
c3437 4 4
c3438 0 2
c3438 1 2
c3438 1 4
c3438 2 2
c3438 3 2
c3438 3 4
c3438 4 2
c3438 4 4
c3439 0 2
c3439 0 3
c3439 1 2
c3439 2 2
c3439 3 2
c3439 4 1
c3439 4 2
c3439 4 3
c3441 0 0
c3441 0 4
c3441 1 0
c3441 1 4
c3441 2 0
c3441 2 4
c3441 3 0
c3441 4 0
c3442 0 0
c3442 1 0
c3442 2 0
c3442 4 0
c3442 4 1
c3442 4 2
c3442 4 3
c3442 4 4
c3447 0 4
c3447 1 4
c3447 2 4
c3447 3 4
c3447 4 3
c3447 4 4
c3448 0 0
c3448 0 1
c3448 0 2
c3448 0 3
c3448 0 4
c3448 1 0
c3448 2 0
c3448 4 0
c3449 4 0
c3449 4 1
c3449 4 2
c3449 4 3
c3449 4 4
c3450 0 4
c3450 1 4
c3450 2 3
c3450 2 4
c3450 3 3
c3450 3 4
c3450 4 3
c3450 4 4
c3451 0 0
c3451 0 2
c3451 0 3
c3451 1 0
c3451 1 4
c3451 2 0
c3451 2 4
c3451 3 0
c3451 3 4
c3451 4 0
c3452 2 2
c3452 3 2
c3452 4 2
c3453 0 0
c3453 0 2
c3453 0 3
c3453 1 0
c3453 1 4
c3453 2 0
c3453 2 4
c3453 3 0
c3453 3 4
c3453 4 0
c3454 2 2
c3454 3 2
c3454 4 2
c3456 0 0
c3456 0 2
c3456 1 0
c3456 1 2
c3456 1 3
c3456 2 0
c3456 3 0
c3456 4 0
c3457 0 0
c3457 0 1
c3457 0 2
c3457 3 3
c3457 3 4
c3457 4 2
c3457 4 3
c3457 4 4
c3458 0 0
c3458 1 0
c3458 2 0
c3458 4 0
c3458 4 1
c3458 4 2
c3458 4 3
c3458 4 4
c3459 0 0
c3459 0 2
c3459 0 3
c3459 1 0
c3459 1 4
c3459 2 0
c3459 2 4
c3459 3 0
c3459 3 4
c3459 4 0
c3460 0 0
c3460 1 0
c3460 1 3
c3460 2 0
c3460 2 4
c3460 3 0
c3460 4 0
c3460 4 4
c3461 0 0
c3461 4 0
c3461 4 1
c3461 4 2
c3461 4 3
c3461 4 4
c3464 0 0
c3464 0 1
c3464 4 0
c3464 4 1
c3464 4 2
c3464 4 3
c3464 4 4
c3465 0 0
c3465 0 1
c3465 0 2
c3465 0 3
c3465 4 1
c3465 4 2
c3465 4 3
c3465 4 4
c3466 0 0
c3466 0 4
c3466 1 0
c3466 2 0
c3466 3 0
c3466 3 4
c3466 4 0
c3466 4 4
cU2 0 1
cU2 0 2
cU2 1 1
cU2 1 2
cU2 2 1
cU2 2 2
cU2 3 2
cU2 4 2
c3471 0 3
c3471 0 4
c3471 1 3
c3471 1 4
c3471 3 3
c3471 3 4
c3471 4 3
c3471 4 4
c3472 0 0
c3472 0 1
c3472 1 0
c3472 1 1
c3472 2 0
c3472 2 1
c3472 4 0
c3472 4 1
c3478 0 0
c3478 0 1
c3478 0 2
c3478 4 0
c3478 4 1
c3478 4 2
c3478 4 3
c3478 4 4
c3479 0 2
c3479 1 2
c3479 2 2
c3479 3 2
c3479 4 2
cU4 0 0
cU4 0 1
cU4 0 2
cU4 0 3
cU4 0 4
cU4 1 0
cU4 1 1
cU4 2 0
c3484 0 0
c3484 1 0
c3484 2 0
c3484 3 0
c3484 4 0
c3487 1 4
c3487 4 0
c3487 4 1
c3487 4 2
c3487 4 3
c3487 4 4
c3489 1 4
c3489 4 0
c3489 4 1
c3489 4 2
c3489 4 3
c3489 4 4
c3490 0 0
c3490 0 1
c3490 0 2
c3490 0 3
c3490 0 4
c3490 2 4
c3490 3 4
c3490 4 4
cU5 0 0
cU5 1 0
cU5 2 0
cU5 3 0
cU5 4 0
cU5 4 4
c3493 3 2
c3493 3 3
c3493 3 4
c3493 4 0
c3493 4 1
c3493 4 2
c3493 4 3
c3493 4 4
c3496 1 4
c3496 4 0
c3496 4 1
c3496 4 2
c3496 4 3
c3496 4 4
c3497 0 0
c3497 0 4
c3497 1 4
c3497 2 0
c3497 2 4
c3497 3 4
c3497 4 0
c3497 4 4
cU6 0 0
cU6 2 0
cU6 3 0
cU6 4 0
cU6 4 1
cU6 4 2
cU6 4 3
cU6 4 4
c3500 0 0
c3500 0 4
c3500 1 4
c3500 2 0
c3500 2 4
c3500 3 4
c3500 4 0
c3500 4 4
c3501 0 0
c3501 0 1
c3501 0 2
c3501 0 3
c3501 0 4
c3501 4 2
c3501 4 3
c3501 4 4
c3502 0 0
c3502 0 1
c3502 0 2
c3502 0 3
c3502 0 4
c3502 4 2
c3502 4 3
c3502 4 4
c3503 0 4
c3503 1 4
c3503 2 4
c3503 3 4
c3503 4 3
c3503 4 4
c3505 1 2
c3505 1 4
c3505 2 2
c3505 2 4
c3505 3 3
c3505 3 4
c3505 4 2
c3505 4 4
c3506 0 0
c3506 0 1
c3506 0 2
c3506 1 0
c3506 1 1
c3506 1 2
c3506 1 3
c3506 1 4
c3506 2 1
c3506 3 1
c3506 3 2
c3506 3 3
c3506 3 4
c3506 4 2
c3506 4 3
c3506 4 4
c3507 3 2
c3507 3 3
c3507 3 4
c3507 4 0
c3507 4 1
c3507 4 2
c3507 4 3
c3507 4 4
c3508 4 0
c3508 4 1
c3508 4 2
c3508 4 3
c3508 4 4
c3509 0 2
c3509 0 4
c3509 1 2
c3509 1 4
c3509 2 4
c3509 3 4
c3509 4 3
c3509 4 4
c3510 0 2
c3510 0 4
c3510 1 2
c3510 1 4
c3510 2 4
c3510 3 4
c3510 4 3
c3510 4 4
c3511 0 0
c3511 0 2
c3511 1 2
c3511 2 0
c3511 2 2
c3511 3 2
c3511 4 0
c3511 4 2
c3512 0 0
c3512 0 1
c3512 0 2
c3512 1 0
c3512 2 0
c3512 3 0
c3512 4 3
c3512 4 4
c3513 0 0
c3513 0 1
c3513 0 2
c3513 1 0
c3513 2 0
c3513 3 0
c3513 4 3
c3513 4 4
c3514 0 0
c3514 0 1
c3514 0 2
c3514 1 0
c3514 2 0
c3514 3 0
c3514 4 3
c3514 4 4
c3517 0 2
c3517 0 3
c3517 0 4
c3517 1 2
c3517 1 3
c3517 1 4
c3517 2 2
c3517 2 3
c3517 2 4
c3517 3 2
c3517 3 3
c3517 3 4
c3517 4 0
c3517 4 1
c3517 4 2
c3517 4 3
c3517 4 4
c3518 0 2
c3518 0 3
c3518 0 4
c3518 1 2
c3518 1 3
c3518 1 4
c3518 2 2
c3518 2 3
c3518 2 4
c3518 3 2
c3518 3 3
c3518 3 4
c3518 4 0
c3518 4 1
c3518 4 2
c3518 4 3
c3518 4 4
c3519 0 0
c3519 0 1
c3519 0 4
c3519 1 2
c3519 2 2
c3519 3 4
c3519 4 3
c3519 4 4
cU7 0 0
cU7 0 1
cU7 2 0
cU7 2 1
cU7 3 0
cU7 3 1
cU7 4 0
cU7 4 1
cU9 0 0
cU9 0 1
cU9 0 2
cU9 0 3
cU9 0 4
cU9 1 0
cU9 1 1
cU9 1 2
cU10 0 0
cU10 0 1
cU10 0 2
cU10 4 0
cU10 4 1
cU10 4 2
cU10 4 3
cU10 4 4
cU12 0 0
cU12 0 1
cU12 0 2
cU12 0 3
cU12 0 4
cU12 1 0
cU12 1 1
cU12 1 2
cU12 3 3
cU12 3 4
cU12 4 0
cU12 4 1
cU12 4 2
cU12 4 3
cU12 4 4
cU14 0 0
cU14 0 1
cU14 2 0
cU14 2 1
cU14 3 0
cU14 3 1
cU14 4 0
cU14 4 1
cU16 0 0
cU16 0 1
cU16 0 2
cU16 0 3
cU16 0 4
cU16 4 2
cU16 4 3
cU16 4 4
cU17 0 0
cU17 0 1
cU17 0 2
cU17 0 3
cU17 0 4
cU17 3 2
cU17 3 3
cU17 3 4
cU17 4 0
cU17 4 1
cU17 4 2
cU17 4 3
cU17 4 4
cU19 0 0
cU19 0 1
cU19 0 2
cU19 1 0
cU19 1 1
cU19 1 2
cU19 2 0
cU19 2 1
cU19 2 2
cU19 2 3
cU19 2 4
cU19 4 0
cU19 4 1
cU19 4 2
cU20 0 0
cU20 0 1
cU20 0 2
cU20 1 2
cU20 2 2
cU20 3 2
cU20 4 0
cU20 4 2
c3552 0 2
c3552 1 2
c3552 2 2
c3552 3 2
c3552 4 0
c3552 4 2
c3552 4 3
c3552 4 4
c3553 0 0
c3553 0 1
c3553 0 2
c3553 0 3
c3553 0 4
c3553 4 2
c3553 4 3
c3553 4 4
c3554 0 0
c3554 0 1
c3554 0 2
c3554 0 3
c3554 0 4
c3554 3 0
c3554 3 1
c3554 3 2
c3554 3 3
c3554 3 4
c3555 0 0
c3555 0 1
c3555 0 2
c3555 0 3
c3555 0 4
c3555 3 0
c3555 3 1
c3555 3 2
c3555 3 3
c3555 3 4
c3557 0 4
c3557 1 4
c3557 2 4
c3557 3 4
c3557 4 4
c3558 0 0
c3558 0 1
c3558 0 4
c3558 1 2
c3558 2 2
c3558 3 4
c3558 4 3
c3558 4 4
c3559 0 0
c3559 0 1
c3559 0 2
c3559 0 3
c3559 0 4
c3559 1 0
c3559 2 0
c3559 4 0
cU22 0 0
cU22 0 1
cU22 0 2
cU22 0 3
cU22 0 4
cU22 1 0
cU22 4 0
cU22 4 1
cU22 4 2
cU22 4 3
cU22 4 4
c3561 0 0
c3561 0 1
c3561 0 2
c3561 0 3
c3561 0 4
c3561 4 2
c3561 4 3
c3561 4 4
c3563 0 0
c3563 0 2
c3563 1 2
c3563 2 2
c3563 3 2
c3563 3 3
c3563 3 4
c3563 4 2
c3564 0 0
c3564 0 2
c3564 1 0
c3564 1 2
c3564 1 3
c3564 2 0
c3564 3 0
c3564 4 0
c3567 0 0
c3567 0 1
c3567 0 2
c3567 0 3
c3567 0 4
c3567 1 0
c3567 1 1
c3567 1 2
c3567 3 3
c3567 3 4
c3567 4 0
c3567 4 1
c3567 4 2
c3567 4 3
c3567 4 4
c3569 0 4
c3569 1 4
c3569 2 0
c3569 2 4
c3569 3 0
c3569 3 4
c3569 4 0
c3569 4 4
c3570 1 2
c3570 1 3
c3570 1 4
c3570 2 0
c3570 2 1
c3570 2 2
c3570 2 3
c3570 2 4
c3571 3 2
c3571 3 3
c3571 3 4
c3571 4 0
c3571 4 1
c3571 4 2
c3571 4 3
c3571 4 4
c3572 0 0
c3572 0 1
c3572 0 2
c3572 0 3
c3572 0 4
c3572 1 0
c3572 4 3
c3572 4 4
c3574 1 0
c3574 1 1
c3574 1 2
c3574 3 0
c3574 3 1
c3574 3 2
c3574 3 3
c3574 3 4
c3575 0 0
c3575 0 1
c3575 0 2
c3575 0 3
c3575 0 4
c3575 1 0
c3575 1 1
c3575 1 2
c3576 0 0
c3576 0 1
c3576 0 3
c3576 0 4
c3576 4 0
c3576 4 1
c3576 4 3
c3576 4 4
c3577 3 2
c3577 3 3
c3577 3 4
c3577 4 0
c3577 4 1
c3577 4 2
c3577 4 3
c3577 4 4
c3579 0 0
c3579 0 1
c3579 0 2
c3579 1 0
c3579 1 2
c3579 3 2
c3579 4 0
c3579 4 2
c3580 0 4
c3580 1 4
c3580 2 4
c3580 3 4
c3580 4 4
c3582 0 2
c3582 1 2
c3582 2 2
c3582 3 2
c3582 4 2
c3583 0 0
c3583 0 1
c3583 0 2
c3583 0 3
c3583 4 1
c3583 4 2
c3583 4 3
c3583 4 4
c3584 3 2
c3584 3 3
c3584 3 4
c3584 4 0
c3584 4 1
c3584 4 2
c3584 4 3
c3584 4 4
c3585 1 0
c3585 1 1
c3585 1 2
c3585 3 0
c3585 3 1
c3585 3 2
c3585 3 3
c3585 3 4
c3586 0 4
c3586 1 4
c3586 2 4
c3586 3 4
c3586 4 3
c3586 4 4
c3587 0 0
c3587 0 1
c3587 0 2
c3587 1 0
c3587 2 0
c3587 3 0
c3587 4 3
c3587 4 4
c3589 0 0
c3589 4 0
c3589 4 1
c3589 4 2
c3589 4 3
c3589 4 4
c3594 0 0
c3594 0 1
c3594 0 2
c3594 0 3
c3594 0 4
c3594 1 0
c3594 1 1
c3594 1 2
c3595 0 2
c3595 1 2
c3595 2 2
c3595 3 2
c3595 4 2
c3596 0 0
c3596 0 1
c3596 0 2
c3596 4 0
c3596 4 1
c3596 4 2
c3596 4 3
c3596 4 4
c3598 0 0
c3600 0 2
c3600 1 2
c3600 2 2
c3600 3 2
c3600 4 2
c3602 0 0
c3602 0 1
c3602 0 2
c3602 4 0
c3602 4 1
c3602 4 2
c3602 4 3
c3602 4 4
c3603 0 3
c3603 0 4
c3603 1 3
c3603 1 4
c3603 2 3
c3603 2 4
c3603 4 3
c3603 4 4
c3604 0 0
c3604 1 0
c3604 1 3
c3604 2 0
c3604 2 4
c3604 3 0
c3604 4 0
c3604 4 4
c3606 0 0
c3606 0 1
c3606 0 2
c3606 0 3
c3606 0 4
c3606 1 0
c3606 1 1
c3606 1 2
c3607 0 0
c3607 0 1
c3607 0 2
c3607 0 3
c3607 0 4
c3607 1 0
c3607 1 1
c3607 1 2

ROOM_CONSTRAINTS:
c3433 r151
c3433 r152
c3433 r180
c3434 r151
c3434 r152
c3434 r180
c3435 r151
c3435 r152
c3435 r180
c3436 r151
c3436 r152
c3436 r180
c3437 r151
c3437 r152
c3437 r180
c3438 r151
c3438 r152
c3438 r180
c3439 r151
c3439 r152
c3439 r180
c3440 r137
c3440 r138
c3440 r139
c3440 r140
c3440 r141
c3440 r142
c3440 r143
c3440 r144
c3440 r145
c3440 r146
c3440 r147
c3440 r148
c3440 r149
c3440 r150
c3440 r151
c3440 r152
c3440 r153
c3440 r154
c3440 r155
c3440 r156
c3440 r157
c3440 r158
c3440 r159
c3440 r162
c3440 r160
c3440 r161
c3441 r151
c3441 r152
c3441 r180
c3442 r151
c3442 r152
c3442 r180
c3443 r137
c3443 r138
c3443 r139
c3443 r140
c3443 r141
c3443 r142
c3443 r143
c3443 r144
c3443 r145
c3443 r146
c3443 r147
c3443 r148
c3443 r149
c3443 r150
c3443 r151
c3443 r152
c3443 r153
c3443 r154
c3443 r155
c3443 r156
c3443 r157
c3443 r158
c3443 r159
c3443 r162
c3443 r160
c3443 r161
c3444 r151
c3444 r152
c3444 r180
cU1 r151
cU1 r152
cU1 r180
c3447 r151
c3447 r152
c3447 r180
c3448 r151
c3448 r152
c3448 r180
c3449 r151
c3449 r152
c3449 r180
c3450 r151
c3450 r152
c3450 r180
c3451 r151
c3451 r152
c3451 r180
c3452 r151
c3452 r152
c3452 r180
c3453 r137
c3453 r138
c3453 r139
c3453 r140
c3453 r141
c3453 r142
c3453 r143
c3453 r144
c3453 r145
c3453 r146
c3453 r147
c3453 r148
c3453 r149
c3453 r150
c3453 r151
c3453 r152
c3453 r153
c3453 r154
c3453 r155
c3453 r156
c3453 r157
c3453 r158
c3453 r159
c3453 r162
c3453 r160
c3453 r161
c3454 r151
c3454 r152
c3454 r180
c3455 r151
c3455 r152
c3455 r180
c3456 r151
c3456 r152
c3456 r180
c3457 r151
c3457 r152
c3457 r180
c3458 r151
c3458 r152
c3458 r180
c3459 r151
c3459 r152
c3459 r180
c3460 r151
c3460 r152
c3460 r180
c3461 r151
c3461 r152
c3461 r180
c3462 r151
c3462 r152
c3462 r180
c3463 r137
c3463 r138
c3463 r139
c3463 r140
c3463 r141
c3463 r142
c3463 r143
c3463 r144
c3463 r145
c3463 r146
c3463 r147
c3463 r148
c3463 r149
c3463 r150
c3463 r151
c3463 r152
c3463 r153
c3463 r154
c3463 r155
c3463 r156
c3463 r157
c3463 r158
c3463 r159
c3463 r162
c3463 r160
c3463 r161
c3464 r151
c3464 r152
c3464 r180
c3465 r151
c3465 r152
c3465 r180
c3466 r151
c3466 r152
c3466 r180
cU2 r151
cU2 r152
cU2 r180
c3469 r151
c3469 r152
c3469 r180
c3470 r151
c3470 r152
c3470 r180
c3471 r151
c3471 r152
c3471 r180
c3472 r151
c3472 r152
c3472 r180
c3473 r151
c3473 r152
c3473 r180
c3474 r151
c3474 r152
c3474 r180
c3475 r137
c3475 r138
c3475 r139
c3475 r140
c3475 r141
c3475 r142
c3475 r143
c3475 r144
c3475 r145
c3475 r146
c3475 r147
c3475 r148
c3475 r149
c3475 r150
c3475 r151
c3475 r152
c3475 r153
c3475 r154
c3475 r155
c3475 r156
c3475 r157
c3475 r158
c3475 r159
c3475 r162
c3475 r160
c3475 r161
c3476 r151
c3476 r152
c3476 r180
c3477 r151
c3477 r152
c3477 r180
c3478 r151
c3478 r152
c3478 r180
c3479 r151
c3479 r152
c3479 r180
cU3 r137
cU3 r139
cU3 r140
cU3 r141
cU3 r142
cU3 r149
cU3 r150
cU3 r154
cU3 r155
cU3 r162
cU4 r137
cU4 r139
cU4 r140
cU4 r141
cU4 r142
cU4 r149
cU4 r150
cU4 r154
cU4 r155
cU4 r162
c3484 r137
c3484 r139
c3484 r140
c3484 r141
c3484 r142
c3484 r149
c3484 r150
c3484 r154
c3484 r155
c3484 r162
c3485 r151
c3485 r152
c3485 r180
c3486 r151
c3486 r152
c3486 r180
c3487 r151
c3487 r152
c3487 r180
c3488 r151
c3488 r152
c3488 r180
c3489 r151
c3489 r152
c3489 r180
c3490 r151
c3490 r152
c3490 r180
cU5 r151
cU5 r152
cU5 r180
c3493 r151
c3493 r152
c3493 r180
c3494 r137
c3494 r138
c3494 r139
c3494 r140
c3494 r141
c3494 r142
c3494 r143
c3494 r144
c3494 r145
c3494 r146
c3494 r147
c3494 r148
c3494 r149
c3494 r150
c3494 r151
c3494 r152
c3494 r153
c3494 r154
c3494 r155
c3494 r156
c3494 r157
c3494 r158
c3494 r159
c3494 r162
c3494 r160
c3494 r161
c3495 r151
c3495 r152
c3495 r180
c3496 r151
c3496 r152
c3496 r180
c3497 r151
c3497 r152
c3497 r180
cU6 r137
cU6 r138
cU6 r139
cU6 r140
cU6 r141
cU6 r142
cU6 r143
cU6 r144
cU6 r145
cU6 r146
cU6 r147
cU6 r148
cU6 r149
cU6 r150
cU6 r151
cU6 r152
cU6 r153
cU6 r154
cU6 r155
cU6 r156
cU6 r157
cU6 r158
cU6 r159
cU6 r162
cU6 r160
cU6 r161
c3500 r151
c3500 r152
c3500 r180
c3501 r151
c3501 r152
c3501 r180
c3502 r151
c3502 r152
c3502 r180
c3503 r151
c3503 r152
c3503 r180
c3504 r151
c3504 r152
c3504 r180
c3505 r151
c3505 r152
c3505 r180
c3506 r151
c3506 r152
c3506 r180
c3507 r151
c3507 r152
c3507 r180
c3508 r151
c3508 r152
c3508 r180
c3509 r151
c3509 r152
c3509 r180
c3510 r151
c3510 r152
c3510 r180
c3511 r151
c3511 r152
c3511 r180
c3512 r151
c3512 r152
c3512 r180
c3513 r151
c3513 r152
c3513 r180
c3514 r151
c3514 r152
c3514 r180
c3515 r151
c3515 r152
c3515 r180
c3516 r151
c3516 r152
c3516 r180
c3517 r151
c3517 r152
c3517 r180
c3518 r151
c3518 r152
c3518 r180
c3519 r151
c3519 r152
c3519 r180
cU7 r137
cU7 r139
cU7 r140
cU7 r141
cU7 r142
cU7 r149
cU7 r150
cU7 r154
cU7 r155
cU7 r162
c3522 r151
c3522 r152
c3522 r180
cU8 r137
cU8 r139
cU8 r140
cU8 r141
cU8 r142
cU8 r149
cU8 r150
cU8 r154
cU8 r155
cU8 r162
c3525 r151
c3525 r152
c3525 r180
cU9 r137
cU9 r139
cU9 r140
cU9 r141
cU9 r142
cU9 r146
cU9 r147
cU9 r148
cU9 r149
cU9 r150
cU9 r153
cU9 r154
cU9 r155
cU9 r156
cU9 r157
cU9 r158
cU9 r159
cU9 r162
cU10 r137
cU10 r139
cU10 r140
cU10 r141
cU10 r142
cU10 r146
cU10 r147
cU10 r148
cU10 r149
cU10 r150
cU10 r153
cU10 r154
cU10 r155
cU10 r156
cU10 r157
cU10 r158
cU10 r159
cU10 r162
cU11 r137
cU11 r139
cU11 r140
cU11 r141
cU11 r142
cU11 r149
cU11 r150
cU11 r154
cU11 r155
cU11 r162
cU12 r137
cU12 r139
cU12 r140
cU12 r141
cU12 r142
cU12 r149
cU12 r150
cU12 r154
cU12 r155
cU12 r162
cU13 r137
cU13 r139
cU13 r140
cU13 r141
cU13 r142
cU13 r146
cU13 r147
cU13 r148
cU13 r149
cU13 r150
cU13 r153
cU13 r154
cU13 r155
cU13 r156
cU13 r157
cU13 r158
cU13 r159
cU13 r162
cU14 r137
cU14 r139
cU14 r140
cU14 r141
cU14 r142
cU14 r149
cU14 r150
cU14 r154
cU14 r155
cU14 r162
cU16 r137
cU16 r139
cU16 r140
cU16 r141
cU16 r142
cU16 r146
cU16 r147
cU16 r148
cU16 r149
cU16 r150
cU16 r153
cU16 r154
cU16 r155
cU16 r156
cU16 r157
cU16 r158
cU16 r159
cU16 r162
cU17 r137
cU17 r139
cU17 r140
cU17 r141
cU17 r142
cU17 r146
cU17 r147
cU17 r148
cU17 r149
cU17 r150
cU17 r153
cU17 r154
cU17 r155
cU17 r156
cU17 r157
cU17 r158
cU17 r159
cU17 r162
cU18 r137
cU18 r139
cU18 r140
cU18 r141
cU18 r142
cU18 r146
cU18 r147
cU18 r148
cU18 r149
cU18 r150
cU18 r153
cU18 r154
cU18 r155
cU18 r156
cU18 r157
cU18 r158
cU18 r159
cU18 r162
cU19 r137
cU19 r139
cU19 r140
cU19 r141
cU19 r142
cU19 r146
cU19 r147
cU19 r148
cU19 r149
cU19 r150
cU19 r153
cU19 r154
cU19 r155
cU19 r156
cU19 r157
cU19 r158
cU19 r159
cU19 r162
cU20 r137
cU20 r139
cU20 r140
cU20 r141
cU20 r142
cU20 r146
cU20 r147
cU20 r148
cU20 r149
cU20 r150
cU20 r153
cU20 r154
cU20 r155
cU20 r156
cU20 r157
cU20 r158
cU20 r159
cU20 r162
cU21 r137
cU21 r139
cU21 r140
cU21 r141
cU21 r142
cU21 r146
cU21 r147
cU21 r148
cU21 r149
cU21 r150
cU21 r153
cU21 r154
cU21 r155
cU21 r156
cU21 r157
cU21 r158
cU21 r159
cU21 r162
c3552 r151
c3552 r152
c3552 r180
c3553 r151
c3553 r152
c3553 r180
c3554 r151
c3554 r152
c3554 r180
c3555 r137
c3555 r138
c3555 r139
c3555 r140
c3555 r141
c3555 r142
c3555 r143
c3555 r144
c3555 r145
c3555 r146
c3555 r147
c3555 r148
c3555 r149
c3555 r150
c3555 r151
c3555 r152
c3555 r153
c3555 r154
c3555 r155
c3555 r156
c3555 r157
c3555 r158
c3555 r159
c3555 r162
c3555 r160
c3555 r161
c3556 r151
c3556 r152
c3556 r180
c3557 r151
c3557 r152
c3557 r180
c3558 r151
c3558 r152
c3558 r180
c3559 r151
c3559 r152
c3559 r180
cU22 r151
cU22 r152
cU22 r180
c3561 r151
c3561 r152
c3561 r180
c3562 r151
c3562 r152
c3562 r180
c3563 r151
c3563 r152
c3563 r180
c3564 r151
c3564 r152
c3564 r180
c3565 r151
c3565 r152
c3565 r180
c3566 r151
c3566 r152
c3566 r180
c3567 r137
c3567 r139
c3567 r140
c3567 r141
c3567 r142
c3567 r146
c3567 r147
c3567 r148
c3567 r149
c3567 r150
c3567 r153
c3567 r154
c3567 r155
c3567 r156
c3567 r157
c3567 r158
c3567 r159
c3567 r162
c3568 r137
c3568 r139
c3568 r140
c3568 r141
c3568 r142
c3568 r146
c3568 r147
c3568 r148
c3568 r149
c3568 r150
c3568 r153
c3568 r154
c3568 r155
c3568 r156
c3568 r157
c3568 r158
c3568 r159
c3568 r162
c3569 r151
c3569 r152
c3569 r180
c3570 r151
c3570 r152
c3570 r180
c3571 r151
c3571 r152
c3571 r180
c3572 r151
c3572 r152
c3572 r180
c3574 r151
c3574 r152
c3574 r180
c3575 r151
c3575 r152
c3575 r180
c3576 r151
c3576 r152
c3576 r180
c3577 r151
c3577 r152
c3577 r180
c3578 r137
c3578 r138
c3578 r139
c3578 r140
c3578 r141
c3578 r142
c3578 r143
c3578 r144
c3578 r145
c3578 r146
c3578 r147
c3578 r148
c3578 r149
c3578 r150
c3578 r151
c3578 r152
c3578 r153
c3578 r154
c3578 r155
c3578 r156
c3578 r157
c3578 r158
c3578 r159
c3578 r162
c3578 r160
c3578 r161
c3579 r137
c3579 r139
c3579 r140
c3579 r141
c3579 r142
c3579 r149
c3579 r150
c3579 r154
c3579 r155
c3579 r162
c3580 r151
c3580 r152
c3580 r180
c3581 r151
c3581 r152
c3581 r180
c3582 r151
c3582 r152
c3582 r180
c3583 r151
c3583 r152
c3583 r180
c3584 r151
c3584 r152
c3584 r180
c3585 r151
c3585 r152
c3585 r180
c3586 r151
c3586 r152
c3586 r180
c3587 r151
c3587 r152
c3587 r180
c3588 r137
c3588 r138
c3588 r139
c3588 r140
c3588 r141
c3588 r142
c3588 r143
c3588 r144
c3588 r145
c3588 r146
c3588 r147
c3588 r148
c3588 r149
c3588 r150
c3588 r151
c3588 r152
c3588 r153
c3588 r154
c3588 r155
c3588 r156
c3588 r157
c3588 r158
c3588 r159
c3588 r162
c3588 r160
c3588 r161
c3589 r151
c3589 r152
c3589 r180
c3590 r151
c3590 r152
c3590 r180
c3591 r151
c3591 r152
c3591 r180
c3592 r151
c3592 r152
c3592 r180
c3593 r151
c3593 r152
c3593 r180
c3594 r137
c3594 r139
c3594 r140
c3594 r141
c3594 r142
c3594 r149
c3594 r150
c3594 r154
c3594 r155
c3594 r162
c3595 r151
c3595 r152
c3595 r180
c3596 r151
c3596 r152
c3596 r180
c3597 r151
c3597 r152
c3597 r180
c3598 r151
c3598 r152
c3598 r180
c3599 r151
c3599 r152
c3599 r180
c3600 r151
c3600 r152
c3600 r180
c3601 r137
c3601 r138
c3601 r139
c3601 r140
c3601 r141
c3601 r142
c3601 r143
c3601 r144
c3601 r145
c3601 r146
c3601 r147
c3601 r148
c3601 r149
c3601 r150
c3601 r151
c3601 r152
c3601 r153
c3601 r154
c3601 r155
c3601 r156
c3601 r157
c3601 r158
c3601 r159
c3601 r162
c3601 r160
c3601 r161
c3602 r151
c3602 r152
c3602 r180
c3603 r151
c3603 r152
c3603 r180
c3604 r151
c3604 r152
c3604 r180
c3605 r151
c3605 r152
c3605 r180
c3606 r151
c3606 r152
c3606 r180
c3607 r151
c3607 r152
c3607 r180
cU23 r137
cU23 r139
cU23 r140
cU23 r141
cU23 r142
cU23 r149
cU23 r150
cU23 r154
cU23 r155
cU23 r162

END.
